1 1178
2 1039
3 1035
6 926
16 881
45 842
916 830



1 1162
2 1061
5 1056
6 988
9 902
10 889
30 879
122 830
565 827



1 1193
2 1004
4 963
13 957
17 861
118 834
598 829



1 1187
2 1095
3 960
14 823



1 1167
2 1135
3 1065
4 1051
5 1007
7 969
13 953
14 917
29 882
32 847
85 833
86 830
367 813
497 812



